NAME
ROWS
 N  obj
 E  c1      
 E  c2      
 E  c3      
 E  c4      
COLUMNS
    x1        obj       0
    x1        c1        -1
    x1        c2        -0.5
    x1        c3        -1
    x1        c4        1
    x2        obj       0
    x2        c1        1
    x2        c3        1
    x2        c4        1
    x3        obj       0
    x3        c1        1
    x3        c2        1
    x3        c3        1
    x3        c4        1
    x4        obj       0
    x4        c1        -2
    x4        c2        -2
    x5        obj       0
    x5        c2        0.5
    x5        c3        -1
RHS
    rhs       c4        1
RANGES
BOUNDS
ENDATA